NAME: ../File/prFile/tspFile/tsp_file45.tsp
COMMENT: TSP file generated by Python
TYPE: TSP
DIMENSION: 30
EDGE_WEIGHT_TYPE: EUC_2D
NODE_COORD_SECTION
1 70 10
2 39 31
3 24 65
4 6 92
5 15 14
6 42 38
7 43 16
8 14 60
9 37 95
10 27 76
11 35 74
12 64 49
13 42 60
14 24 81
15 86 45
16 55 4
17 42 62
18 68 29
19 82 88
20 66 81
21 55 43
22 53 59
23 24 44
24 82 39
25 26 67
26 15 46
27 19 20
28 71 32
29 38 35
30 94 15
EOF
